data_NIMS_MatNavi_4296268993_1_2

#
# COPYRIGHT NOTICE
#
# This CIF data is created using data from AtomWork, published 2010/06 by
# National Institute for Materials Science (NIMS), Tsukuba, Japan. Copyright
# 2010 by NIMS and  Materials Phases Data system (MPDS), Vitznau,
# Switzerland. All Rghts Reserved.
#
# DISCLAIMER
#
# The values reported here are taken from the literature and other sources and
# the author does not warrant their correctness nor accept any
# responsibility for errors. Users are advised to consult the primarysources.
#

_chemical_formula_sum 'K'
_space_group_crystal_system cubic
_symmetry_space_group_name_H-M 'I m -3 m'
_symmetry_Int_Tables_number 229

loop_
    _symmetry_equiv_pos_site_id
    _symmetry_equiv_pos_as_xyz
1 x,y,z
2 -x,-y,z
3 -x,y,-z
4 x,-y,-z
5 z,x,y
6 z,-x,-y
7 -z,-x,y
8 -z,x,-y
9 y,z,x
10 -y,z,-x
11 y,-z,-x
12 -y,-z,x
13 y,x,-z
14 -y,-x,-z
15 y,-x,z
16 -y,x,z
17 x,z,-y
18 -x,z,y
19 -x,-z,-y
20 x,-z,y
21 z,y,-x
22 z,-y,x
23 -z,y,x
24 -z,-y,-x
25 -x,-y,-z
26 x,y,-z
27 x,-y,z
28 -x,y,z
29 -z,-x,-y
30 -z,x,y
31 z,x,-y
32 z,-x,y
33 -y,-z,-x
34 y,-z,x
35 -y,z,x
36 y,z,-x
37 -y,-x,z
38 y,x,z
39 -y,x,-z
40 y,-x,-z
41 -x,-z,y
42 x,-z,-y
43 x,z,y
44 -x,z,-y
45 -z,-y,x
46 -z,y,-x
47 z,-y,-x
48 z,y,x
49 x+1/2,y+1/2,z+1/2
50 -x+1/2,-y+1/2,z+1/2
51 -x+1/2,y+1/2,-z+1/2
52 x+1/2,-y+1/2,-z+1/2
53 z+1/2,x+1/2,y+1/2
54 z+1/2,-x+1/2,-y+1/2
55 -z+1/2,-x+1/2,y+1/2
56 -z+1/2,x+1/2,-y+1/2
57 y+1/2,z+1/2,x+1/2
58 -y+1/2,z+1/2,-x+1/2
59 y+1/2,-z+1/2,-x+1/2
60 -y+1/2,-z+1/2,x+1/2
61 y+1/2,x+1/2,-z+1/2
62 -y+1/2,-x+1/2,-z+1/2
63 y+1/2,-x+1/2,z+1/2
64 -y+1/2,x+1/2,z+1/2
65 x+1/2,z+1/2,-y+1/2
66 -x+1/2,z+1/2,y+1/2
67 -x+1/2,-z+1/2,-y+1/2
68 x+1/2,-z+1/2,y+1/2
69 z+1/2,y+1/2,-x+1/2
70 z+1/2,-y+1/2,x+1/2
71 -z+1/2,y+1/2,x+1/2
72 -z+1/2,-y+1/2,-x+1/2
73 -x+1/2,-y+1/2,-z+1/2
74 x+1/2,y+1/2,-z+1/2
75 x+1/2,-y+1/2,z+1/2
76 -x+1/2,y+1/2,z+1/2
77 -z+1/2,-x+1/2,-y+1/2
78 -z+1/2,x+1/2,y+1/2
79 z+1/2,x+1/2,-y+1/2
80 z+1/2,-x+1/2,y+1/2
81 -y+1/2,-z+1/2,-x+1/2
82 y+1/2,-z+1/2,x+1/2
83 -y+1/2,z+1/2,x+1/2
84 y+1/2,z+1/2,-x+1/2
85 -y+1/2,-x+1/2,z+1/2
86 y+1/2,x+1/2,z+1/2
87 -y+1/2,x+1/2,-z+1/2
88 y+1/2,-x+1/2,-z+1/2
89 -x+1/2,-z+1/2,y+1/2
90 x+1/2,-z+1/2,-y+1/2
91 x+1/2,z+1/2,y+1/2
92 -x+1/2,z+1/2,-y+1/2
93 -z+1/2,-y+1/2,x+1/2
94 -z+1/2,y+1/2,-x+1/2
95 z+1/2,-y+1/2,-x+1/2
96 z+1/2,y+1/2,x+1/2

_cell_length_a 5.247
_cell_length_b 5.247
_cell_length_c 5.247
_cell_angle_alpha 90
_cell_angle_beta 90
_cell_angle_gamma 90
_cell_volume 144.5
_cell_formula_units_Z 2

loop_
    _atom_site_label
    _atom_site_fract_x
    _atom_site_fract_y
    _atom_site_fract_z
    _atom_site_occupancy
    _atom_site_symmetry_multiplicity
    _atom_site_Wyckoff_symbol
    _atom_site_U_iso_or_equiv
    _atom_site_type_symbol
K 0 0 0 1.0 2 a ? K

_publ_section_title 'X-ray Study of the Alkali Metals at Low Temperatures'
_journal_coden_ASTM ACCRA9
_journal_name_full 'Acta Crystallogr.'
_journal_year 1956
_journal_volume 9
_journal_page_first 671
_journal_page_last 677
_journal_language English

loop_
    _publ_author_name
'Barrett C.S.'
